clingo version 5.5.2
Reading from ...nt/beegfs/home/jubruns/encoding/mif.lp ...
Solving...
Answer: 1
move(1,(8,8),(9,8),1) move(1,(9,8),(9,9),2) move(2,(1,11),(2,11),1) move(2,(2,11),(3,11),2) move(2,(3,11),(4,11),3) move(2,(4,11),(5,11),4) move(2,(5,11),(5,10),5) move(2,(5,10),(6,10),6) move(2,(6,10),(7,10),7) move(2,(7,10),(7,9),8) move(2,(7,9),(7,8),9) move(2,(7,8),(8,8),10) move(2,(8,8),(8,7),11) move(2,(8,7),(9,7),12) move(2,(9,7),(9,6),13) move(2,(9,6),(9,5),14) move(2,(9,5),(8,5),15) move(2,(8,5),(7,5),16) move(2,(7,5),(7,4),17) move(2,(7,4),(7,3),18) move(2,(7,3),(6,3),19) move(2,(6,3),(5,3),20) move(2,(5,3),(5,4),21) move(2,(5,4),(5,5),22) move(2,(5,5),(4,5),23) move(2,(4,5),(3,5),24) move(2,(3,5),(2,5),25)
SATISFIABLE

Models       : 1+
Calls        : 1
Time         : 4.823s (Solving: 2.27s 1st Model: 2.27s Unsat: 0.00s)
CPU Time     : 4.794s

Choices      : 88939   
Conflicts    : 1490     (Analyzed: 1490)
Restarts     : 10       (Average: 149.00 Last: 12)
Model-Level  : 4961.0  
Problems     : 1        (Average Length: 0.00 Splits: 0)
Lemmas       : 1664     (Deleted: 0)
  Binary     : 64       (Ratio:   3.85%)
  Ternary    : 36       (Ratio:   2.16%)
  Conflict   : 1490     (Average Length:  128.0 Ratio:  89.54%) 
  Loop       : 174      (Average Length:  328.4 Ratio:  10.46%) 
  Other      : 0        (Average Length:    0.0 Ratio:   0.00%) 
Backjumps    : 1490     (Average: 33.77 Max: 4234 Sum:  50324)
  Executed   : 1490     (Average: 33.77 Max: 4234 Sum:  50324 Ratio: 100.00%)
  Bounded    : 0        (Average:  0.00 Max:   0 Sum:      0 Ratio:   0.00%)

Rules        : 1425090  (Original: 1750412)
  Choice     : 17074   
  Heuristic  : 917089   (Original: 1359992)
Atoms        : 273682   (Original: 258887 Auxiliary: 14795)
Bodies       : 311634   (Original: 262673)
  Count      : 50       (Original: 30519)
Equivalences : 211633   (Atom=Atom: 28065 Body=Body: 28063 Other: 155505)
Tight        : No       (SCCs: 2 Non-Hcfs: 0 Nodes: 89972 Gammas: 0)
Variables    : 289062   (Eliminated:    0 Frozen: 98989)
Constraints  : 814248   (Binary:  72.9% Ternary:  20.8% Other:   6.3%)

